p cnf 24 189
1 4 7 10 13 16 19 22 0
2 5 8 11 14 17 20 23 0
3 6 9 12 15 18 21 24 0
-1 -14 0
-1 -15 0
-2 -15 0
-1 -20 0
-1 -21 0
-2 -21 0
-1 -23 0
-1 -24 0
-2 -24 0
-4 -11 0
-4 -12 0
-5 -12 0
-4 -14 0
-4 -15 0
-5 -15 0
-4 -17 0
-4 -18 0
-5 -18 0
-7 -17 0
-7 -18 0
-8 -18 0
-7 -20 0
-7 -21 0
-8 -21 0
-7 -23 0
-7 -24 0
-8 -24 0
-10 -5 0
-10 -6 0
-11 -6 0
-10 -17 0
-10 -18 0
-11 -18 0
-10 -20 0
-10 -21 0
-11 -21 0
-13 -2 0
-13 -3 0
-14 -3 0
-13 -5 0
-13 -6 0
-14 -6 0
-13 -17 0
-13 -18 0
-14 -18 0
-13 -20 0
-13 -21 0
-14 -21 0
-16 -5 0
-16 -6 0
-17 -6 0
-16 -8 0
-16 -9 0
-17 -9 0
-16 -11 0
-16 -12 0
-17 -12 0
-16 -14 0
-16 -15 0
-17 -15 0
-19 -2 0
-19 -3 0
-20 -3 0
-19 -8 0
-19 -9 0
-20 -9 0
-19 -11 0
-19 -12 0
-20 -12 0
-19 -14 0
-19 -15 0
-20 -15 0
-22 -2 0
-22 -3 0
-23 -3 0
-22 -8 0
-22 -9 0
-23 -9 0
-1 -2 0
-4 -5 0
-7 -8 0
-10 -11 0
-13 -14 0
-16 -17 0
-19 -20 0
-22 -23 0
-1 -3 0
-4 -6 0
-7 -9 0
-10 -12 0
-13 -15 0
-16 -18 0
-19 -21 0
-22 -24 0
-2 -3 0
-5 -6 0
-8 -9 0
-11 -12 0
-14 -15 0
-17 -18 0
-20 -21 0
-23 -24 0
-1 -4 0
-1 -7 0
-1 -10 0
-1 -13 0
-1 -16 0
-1 -19 0
-1 -22 0
-4 -7 0
-4 -10 0
-4 -13 0
-4 -16 0
-4 -19 0
-4 -22 0
-7 -10 0
-7 -13 0
-7 -16 0
-7 -19 0
-7 -22 0
-10 -13 0
-10 -16 0
-10 -19 0
-10 -22 0
-13 -16 0
-13 -19 0
-13 -22 0
-16 -19 0
-16 -22 0
-19 -22 0
-2 -5 0
-2 -8 0
-2 -11 0
-2 -14 0
-2 -17 0
-2 -20 0
-2 -23 0
-5 -8 0
-5 -11 0
-5 -14 0
-5 -17 0
-5 -20 0
-5 -23 0
-8 -11 0
-8 -14 0
-8 -17 0
-8 -20 0
-8 -23 0
-11 -14 0
-11 -17 0
-11 -20 0
-11 -23 0
-14 -17 0
-14 -20 0
-14 -23 0
-17 -20 0
-17 -23 0
-20 -23 0
-3 -6 0
-3 -9 0
-3 -12 0
-3 -15 0
-3 -18 0
-3 -21 0
-3 -24 0
-6 -9 0
-6 -12 0
-6 -15 0
-6 -18 0
-6 -21 0
-6 -24 0
-9 -12 0
-9 -15 0
-9 -18 0
-9 -21 0
-9 -24 0
-12 -15 0
-12 -18 0
-12 -21 0
-12 -24 0
-15 -18 0
-15 -21 0
-15 -24 0
-18 -21 0
-18 -24 0
-21 -24 0
